Running for instance ./models/r209.txt
Generating routes...
Execution time:  2.718585  seconds
Academic license - for non-commercial use only
Warning: constraint name "Cliente esta na rota x1" has a space
Optimize a model with 26 rows, 10000 columns and 84485 nonzeros
Variable types: 0 continuous, 10000 integer (0 binary)
Coefficient statistics:
  Matrix range     [1e+00, 1e+00]
  Objective range  [3e+01, 5e+02]
  Bounds range     [1e+00, 1e+00]
  RHS range        [1e+00, 2e+01]
Found heuristic solution: objective 792.8762033
Presolve removed 4 rows and 3153 columns
Presolve time: 0.06s
Presolved: 22 rows, 6847 columns, 47009 nonzeros
Found heuristic solution: objective 756.3455818
Variable types: 0 continuous, 6847 integer (6847 binary)

Root relaxation: objective 4.754551e+02, 73 iterations, 0.01 seconds

    Nodes    |    Current Node    |     Objective Bounds      |     Work
 Expl Unexpl |  Obj  Depth IntInf | Incumbent    BestBd   Gap | It/Node Time

     0     0  475.45512    0    8  756.34558  475.45512  37.1%     -    0s
H    0     0                     485.2625982  475.45512  2.02%     -    0s
     0     0     cutoff    0       485.26260  485.26260  0.00%     -    0s

Cutting planes:
  Clique: 2
  Mod-K: 1

Explored 1 nodes (83 simplex iterations) in 0.12 seconds
Thread count was 8 (of 8 available processors)

Solution count 2: 485.263 756.346 

Optimal solution found (tolerance 1.00e-04)
Best objective 4.852625981603e+02, best bound 4.852625981603e+02, gap 0.0000%

Routes:
12
5 21 22 23 2 15 14 16
13 6 17 8 10 1 24 25 4
18 7 19 11 20 9 3

Distance: 485.26259816
Execution time:  3.732269  seconds
